
Gurobi 6.0.5 (linux64) logging started Sun Oct 22 22:03:10 2017


Gurobi 6.0.5 (linux64) logging started Sun Oct 22 22:03:10 2017


Gurobi 6.0.5 (linux64) logging started Sun Oct 22 22:03:11 2017


Gurobi 6.0.5 (linux64) logging started Sun Oct 22 22:03:11 2017


Gurobi 6.0.5 (linux64) logging started Sun Oct 22 22:03:12 2017


Gurobi 6.0.5 (linux64) logging started Sun Oct 22 22:03:12 2017


Gurobi 6.0.5 (linux64) logging started Sun Oct 22 22:03:13 2017


Gurobi 6.0.5 (linux64) logging started Sun Oct 22 22:03:14 2017


Gurobi 6.0.5 (linux64) logging started Sun Oct 22 22:03:15 2017


Gurobi 6.0.5 (linux64) logging started Sun Oct 22 22:03:29 2017


Gurobi 6.0.5 (linux64) logging started Sun Oct 22 22:03:29 2017


Gurobi 6.0.5 (linux64) logging started Sun Oct 22 22:03:29 2017


Gurobi 6.0.5 (linux64) logging started Sun Oct 22 22:03:30 2017


Gurobi 6.0.5 (linux64) logging started Sun Oct 22 22:03:30 2017


Gurobi 6.0.5 (linux64) logging started Sun Oct 22 22:03:31 2017


Gurobi 6.0.5 (linux64) logging started Sun Oct 22 22:03:32 2017


Gurobi 6.0.5 (linux64) logging started Sun Oct 22 22:03:32 2017


Gurobi 6.0.5 (linux64) logging started Sun Oct 22 22:03:34 2017

